17	4
13	17	23	17	
0	0	0	0	0	3	2	3	4	
3	0	0	0	1	3	6	8	14	
4	3	2	10	0	3	5	10	12	
7	2	0	6	2	3	17	17	17	
1	0	0	5	3	3	14	15	16	
25	0	6	0	10	3	7	10	17	
50	0	9	0	8	3	9	11	13	
50	0	3	3	0	3	12	15	17	
250	0	3	3	0	3	15	17	17	
125	0	0	8	0	3	16	17	17	
250	0	0	0	5	3	17	17	17	
75	2	7	9	0	3	13	17	17	
6	0	0	9	0	2	16	17	
10	4	1	6	0	3	17	17	17	
8	0	6	4	9	2	17	17	
1	5	9	2	0	2	17	17	
0	0	0	0	0	0	
